TOUR_SECTION
1
54
22
42
124
39
163
63
152
29
46
80
160
116
144
200
14
135
71
36
86
34
193
107
147
141
115
151
179
167
114
166
92
32
94
67
31
45
16
198
5
187
150
55
69
104
128
157
72
85
52
84
113
102
183
6
121
171
137
100
134
185
37
3
43
66
59
182
165
4
81
82
15
117
153
139
87
49
56
76
120
58
145
127
88
118
97
41
44
7
196
169
162
17
190
112
180
175
35
148
53
93
133
33
65
201
19
57
38
101
174
25
184
126
140
8
194
195
64
89
146
91
75
21
40
188
155
10
138
18
90
103
181
2
60
62
119
73
111
13
9
136
191
173
96
130
149
172
20
11
164
83
168
68
61
98
51
199
154
197
95
132
161
23
176
177
30
50
110
12
79
47
122
178
192
27
189
28
131
109
125
99
123
156
78
26
142
108
186
48
70
24
77
106
74
129
105
143
170
159
158
-1
EOF